% Solution

%%%%%%%%%% Sudoku parameters %%%%%%%%%%
size = 9;

clue = [|
    0, 0, 1,   0, 7, 0,   0, 0, 0
  | 0, 0, 0,   0, 0, 0,   0, 0, 0
  | 0, 0, 0,   0, 0, 4,   0, 6, 0
  
  | 0, 0, 0,   0, 0, 0,   3, 0, 0
  | 0, 0, 0,   8, 0, 1,   0, 0, 0
  | 0, 0, 2,   0, 0, 0,   0, 0, 0
  
  | 0, 4, 0,   0, 0, 0,   0, 5, 0
  | 0, 0, 0,   0, 0, 0,   0, 0, 0
  | 0, 0, 0,   0, 6, 0,   0, 0, 0
  |];

%%%%%%%%%% Killer parameters %%%%%%%%%%

cage_count = 0;

cage_totals = [];

cage_cells = [];

%%%%%%%%%% Thermometer parameters %%%%%%%%%%

thermo_cells = [];

%%%%%%%% German Whispers parameters %%%%%%%%%

GW_cells = []; 

%%%%%%%% Partial Kropki parameters %%%%%%%%%

krp_cells_white = [];

krp_cells_black = [];

%%%%%%%% Full Kropki parameters %%%%%%%%%

full_kropki = false;

%%%%%%%% Knight parameters %%%%%%%%%

knight = true;
